c turning on binary mode checking
c parsing input formula with 202048 variables and 780985 clauses
c finished parsing, read 2284554 bytes from proof file
c detected empty clause; start verification via backward checking
c 2746 of 780985 clauses in core                            
c 931 of 90036 lemmas in core using 23422 resolution steps
c 0 RAT lemmas in core; 99 redundant literals in core lemmas
s VERIFIED
c verification time: 1.080 seconds
